# Objective value = 1.6644444444444446e+02
B0(2) 1
B1(3) 1
I2(3) 11
B3(2) 0
B4(3) 9.9999999999999978e-01
I5(3) 0
B6(2) 1
B7(3) 1
I8(3) 1
B9(2) 0
B10(3) 1
I11(3) 0
B12(2) 0
B13(3) 1
I14(3) 0
B15(2) 0
B16(3) 0
I17(3) 0
B18(2) 1
B19(3) 1
I20(3) 1
I21(3) 0
I22(1) 0
B23(2) 0
B24(3) 1
B25(3) 1
I26(3) 1
B27(2) 0
B28(3) 0
I29(3) 0
B30(2) 1
B31(3) 1
I32(3) 1
I33(3) 0
B34(4) 0
I35(3) 0
B36(4) 0
B37(8) 1
B38(3) 0
B39(3) 0
B40(7) 0
B41(3) 0
B42(3) 1
B43(8) 0
B44(3) 1
B45(8) 0
B46(3) 1
B47(3) 0
B48(8) 0
B49(3) 1
B50(8) 0
B51(3) 1
B52(3) 0
B53(2) 1
B54(39) 0
I55(2) 26
I56(2) 14
I57(2) 25
I58(2) 26
I59(2) 24
I60(2) 26
I61(2) 25
I62(2) 26
I63(2) 25
I64(2) 26
I65(2) 26
I66(2) 26
I67(2) 26
I68(2) 24
I69(4) 0
B70(1) 1
I71(2) 26
I72(2) 24
I73(2) 24
I74(2) 24
I75(2) 26
I76(2) 26
I77(2) 26
I78(2) 24
I79(6) 1
I80(6) 1
I81(2) 26
I82(2) 26
I83(2) 26
I84(3) 1
I85(2) 24
I86(2) 26
I87(2) 26
I88(2) 2
